language Essence 1.3

letting course_load be
        function(1 --> 4, 2 --> 5, 3 --> 7, 4 --> 8, 5 --> 9, 6 --> 7, 7 --> 9, 8 --> 1, 9 --> 6, 10 --> 3, 11 --> 9,
                 12 --> 8, 13 --> 8, 14 --> 5, 15 --> 6, 16 --> 1, 17 --> 4, 18 --> 7, 19 --> 5, 20 --> 8, 21 --> 4,
                 22 --> 1, 23 --> 9, 24 --> 4, 25 --> 2, 26 --> 2, 27 --> 1, 28 --> 8, 29 --> 6, 30 --> 10, 31 --> 9,
                 32 --> 5, 33 --> 4, 34 --> 10)
letting courses_per_period_lb be 4
letting courses_per_period_ub be 23
letting load_per_period_lb be 22
letting load_per_period_ub be 50
letting n_courses be 34
letting n_periods be 8
letting prerequisite be
        relation((1, 24), (1, 25), (1, 26), (1, 27), (1, 29), (1, 31), (1, 34), (2, 23), (2, 26), (2, 27), (2, 28),
                 (2, 30), (2, 34), (3, 23), (3, 26), (3, 27), (3, 28), (3, 31), (3, 32), (3, 33), (3, 34), (4, 23),
                 (4, 24), (4, 26), (4, 27), (4, 31), (5, 24), (5, 25), (5, 27), (5, 32), (5, 34), (6, 23), (6, 24),
                 (6, 28), (6, 29), (7, 23), (7, 24), (7, 25), (7, 26), (7, 27), (7, 30), (7, 32), (7, 33), (7, 34),
                 (8, 24), (8, 26), (8, 30), (8, 32), (9, 23), (9, 25), (9, 27), (9, 28), (9, 29), (9, 31), (9, 32),
                 (9, 33), (9, 34), (10, 27), (10, 30), (10, 31), (10, 32), (10, 33), (10, 34), (11, 24), (11, 25),
                 (11, 30), (11, 33), (12, 27), (12, 28), (12, 31), (12, 33), (12, 34), (13, 23), (13, 24), (13, 28),
                 (13, 31), (13, 33))
$ Visualisation for prerequisite
$  1 24
$  1 25
$  1 26
$  1 27
$  1 29
$  1 31
$  1 34
$  2 23
$  2 26
$  2 27
$  2 28
$  2 30
$  2 34
$  3 23
$  3 26
$  3 27
$  3 28
$  3 31
$  3 32
$  3 33
$  3 34
$  4 23
$  4 24
$  4 26
$  4 27
$  4 31
$  5 24
$  5 25
$  5 27
$  5 32
$  5 34
$  6 23
$  6 24
$  6 28
$  6 29
$  7 23
$  7 24
$  7 25
$  7 26
$  7 27
$  7 30
$  7 32
$  7 33
$  7 34
$  8 24
$  8 26
$  8 30
$  8 32
$  9 23
$  9 25
$  9 27
$  9 28
$  9 29
$  9 31
$  9 32
$  9 33
$  9 34
$ 10 27
$ 10 30
$ 10 31
$ 10 32
$ 10 33
$ 10 34
$ 11 24
$ 11 25
$ 11 30
$ 11 33
$ 12 27
$ 12 28
$ 12 31
$ 12 33
$ 12 34
$ 13 23
$ 13 24
$ 13 28
$ 13 31
$ 13 33

